731
2042
126
1080
1561
1624
946
420
394
526
763
1320
1843
1553
1812
1377
1902
889
215
352
927
970
769
2060
1212
1819
1779
1309
649
1347
1679
1375
474
1780
813
896
1170
451
169
1451
1161
553
455
503
1801
1486
1861
988
2018
1620
